results/res_prop_muc/res_Cimatti_mathsat_cores/QF_UF/NEQ015_size6.smt.smt2.out

real	1m5.658s
user	1m2.311s
sys	0m3.263s
