results/res_prop_muc/res_Cimatti_mathsat_cores/QF_UF/NEQ015_size6.smt.smt2.res
unsat
( _c0
  _c1586
  _c1592
  _c1598
  _c1604
  _c1610
  _c1616
  _c21694
  _c21695
  _c21696
  _c21697
  _c21698
  _c21699
  _c21701
  _c23254
  _c23279
  _c23280
  _c23281
  _c23282
  _c23283
  _c23304
  _c23306
  _c23307
  _c23308
  _c23329
  _c23332
  _c23333
  _c23354
  _c23358
  _c23379
  _c25642
  _c25643
  _c25644
  _c25645
  _c25646
  _c25647
  _c25649
  _c25921
  _c25922
  _c25923
  _c25924
  _c25925
  _c25926
  _c25927
  _c25928
  _c25929
  _c25930
  _c25931
  _c25932
  _c25933
  _c25934
  _c4780
  _c4781
  _c4782
  _c4783
  _c4784 )
